(set-logic QF_UF)
(declare-sort U 0)
(declare-sort I 0)
(declare-fun op1 (I I) I)
(declare-fun op (I I) I)
(declare-fun e4 () I)
(declare-fun e3 () I)
(declare-fun e2 () I)
(declare-fun e1 () I)
(declare-fun e0 () I)
(assert (or (not (= (op e4 e4) (op (op e4 e3) (op e4 e3)))) (not (= e3 (op e4 (op e3 e4)))) (not (= (op e3 e4) (op e4 (op e4 e3)))) (not (= e4 (op e4 (op (op e4 e3) (op e4 e3))))) (not (= (op e3 e3) (op (op e4 e3) (op e4 e3)))) (not (= (op e4 e3) (op e3 (op e3 e4)))) (not (= e4 (op e3 (op e4 e3)))) (not (= e3 (op e3 (op (op e4 e3) (op e4 e3))))) (not (= (op e4 e3) (op (op e3 e4) e4))) (not (= e4 (op (op e3 e4) e3))) (not (= (op (op e4 e3) (op e4 e3)) (op (op e3 e4) (op e3 e4)))) (not (= e3 (op (op e3 e4) (op e4 e3)))) (not (= (op e3 e4) (op (op e3 e4) (op (op e4 e3) (op e4 e3))))) (not (= e3 (op (op e4 e3) e4))) (not (= (op e3 e4) (op (op e4 e3) e3))) (not (= e4 (op (op e4 e3) (op e3 e4)))) (not (= (op e4 e3) (op (op e4 e3) (op (op e4 e3) (op e4 e3))))) (not (= e4 (op (op (op e4 e3) (op e4 e3)) e4))) (not (= e3 (op (op (op e4 e3) (op e4 e3)) e3))) (not (= (op e3 e4) (op (op (op e4 e3) (op e4 e3)) (op e3 e4)))) (not (= (op (op e4 e3) (op e4 e3)) (op (op (op e4 e3) (op e4 e3)) (op (op e4 e3) (op e4 e3))))) (not (= (op e4 e3) (op (op (op e4 e3) (op e4 e3)) (op e4 e3))))))
(assert (not (not (= e4 (op (op e3 e4) e3)))))
(assert (not (not (= e3 (op (op e4 e3) e4)))))
(assert (not (not (= (op (op e4 e3) (op e4 e3)) (op (op (op e4 e3) (op e4 e3)) (op (op e4 e3) (op e4 e3)))))))
(assert (not (not (= (op (op e4 e3) (op e4 e3)) (op (op e3 e4) (op e3 e4))))))
(assert (not (not (= (op e4 e4) (op (op e4 e3) (op e4 e3))))))
(assert (not (not (= (op e3 e3) (op (op e4 e3) (op e4 e3))))))
(assert (not (not (= (op e4 e3) (op (op e4 e3) (op (op e4 e3) (op e4 e3)))))))
(assert (not (not (= (op e3 e4) (op (op e3 e4) (op (op e4 e3) (op e4 e3)))))))
(assert (not (not (= e3 (op e3 (op (op e4 e3) (op e4 e3)))))))
(assert (not (not (= e4 (op e4 (op (op e4 e3) (op e4 e3)))))))
(assert (not (not (= (op e4 e3) (op (op (op e4 e3) (op e4 e3)) (op e4 e3))))))
(assert (not (not (= (op e3 e4) (op (op (op e4 e3) (op e4 e3)) (op e3 e4))))))
(assert (not (not (= e3 (op (op (op e4 e3) (op e4 e3)) e3)))))
(assert (not (not (= e4 (op (op (op e4 e3) (op e4 e3)) e4)))))
(assert (not (not (= e4 (op (op e4 e3) (op e3 e4))))))
(assert (not (not (= (op e3 e4) (op (op e4 e3) e3)))))
(assert (not (not (= e3 (op (op e3 e4) (op e4 e3))))))
(assert (not (not (= (op e4 e3) (op (op e3 e4) e4)))))
(assert (not (not (= e4 (op e3 (op e4 e3))))))
(assert (not (not (= (op e4 e3) (op e3 (op e3 e4))))))
(assert (not (not (= (op e3 e4) (op e4 (op e4 e3))))))
(assert (not (not (= e3 (op e4 (op e3 e4))))))
(check-sat)
(exit)
